(set-info :origin "SVCOMP13 benchmarks generated by Arie Gurfinkel")
(set-info :status unsat)
(set-logic HORN)
(declare-fun cp-rel-entry () Bool)
(declare-fun cp-rel-__UFO__2 (Real Real Real Real) Bool)
(declare-fun cp-rel-UnifiedReturnBlock1 () Bool)
(declare-fun cp-rel-__UFO__1 (Real Real Real) Bool)
(assert |cp-rel-entry|)
(assert (forall ((?A Real) (?B Real) (?C Real) (?D Bool) (?E Bool) (?F Bool) (?G Bool) (?H Bool) (?I Bool) (?J Bool) (?K Bool) (?L Bool) (?M Bool) (?N Bool) (?O Bool) (?P Bool) (?Q Bool) (?R Bool) (?S Real) (?T Real) )(let (($x113016 (not ?H)))
(let (($x144781 (or $x113016 ?I)))
(let (($x118268 (or (and ?D (not ?O)) (and ?J (not ?P)) (and ?M (not ?Q)))))
(let (($x246950 (and |cp-rel-entry| (= ?P (= ?B 1.0)) (= ?L (not (<= 4.0 ?B))) (= ?O (= ?B 0.0)) (= ?G (not (<= 1.0 ?B))) (= ?T (ite ?R (~ 1073741637.0) 0.0)) (= ?R (= ?S 0.0)) $x118268 (or (not ?M) ?N) (or (not ?M) (and ?H ?N (not ?L))) (or (not ?J) ?K) (or (not ?J) (and ?H ?K ?L)) $x144781 (or $x113016 (and ?E ?I (not ?G))) (or (not ?D) ?F) (or (not ?D) (and ?E ?F ?G)) (= ?Q (= ?B 4.0)))))
(=> $x246950 (|cp-rel-__UFO__1| ?A ?B ?C)))))))
)
(assert (forall ((?A Real) (?B Real) (?C Real) (?D Bool) )(let (($x268850 (|cp-rel-__UFO__1| ?A ?B ?C)))
(=> (and $x268850 (= ?D true)) $x268850)))
)
(assert (forall ((?A Real) (?B Real) (?C Real) (?D Bool) (?E Bool) (?F Bool) (?G Bool) (?H Bool) (?I Bool) (?J Bool) (?K Bool) (?L Bool) (?M Bool) (?N Bool) (?O Bool) (?P Bool) (?Q Bool) (?R Bool) (?S Real) (?T Real) (?U Real) (?V Bool) (?W Bool) (?X Bool) (?Y Bool) (?Z Bool) (?A1 Bool) (?B1 Bool) (?C1 Bool) (?D1 Bool) (?E1 Bool) (?F1 Bool) (?G1 Bool) (?H1 Bool) (?I1 Bool) (?J1 Bool) (?K1 Bool) (?L1 Bool) (?M1 Bool) (?N1 Bool) (?O1 Bool) (?P1 Real) (?Q1 Real) )(let (($x398758 (not ?Z)))
(let (($x307373 (or $x398758 ?A1)))
(let (($x349981 (not ?B1)))
(let (($x475183 (or $x349981 (and ?Z ?C1 (<= ?U 4.0) (>= ?U 4.0)) (and ?X ?D1 (<= ?U 2.0) (>= ?U 2.0)) (and ?V ?E1 (<= ?U 2.0) (>= ?U 2.0)))))
(let (($x454476 (or $x349981 (and ?C1 (not ?D1) (not ?E1)) (and ?D1 (not ?C1) (not ?E1)) (and ?E1 (not ?C1) (not ?D1)))))
(let (($x170485 (and |cp-rel-entry| (= ?O1 (= ?U 4.0)) (= ?M1 (not (<= 2.0 ?U))) (= ?H1 (not (<= 4.0 ?U))) (= ?P1 (+ 1.0 ?Q1)) (= ?Q (= ?B 4.0)) (= ?P (= ?B 1.0)) (= ?L (not (<= 4.0 ?B))) (= ?O (= ?B 0.0)) (= ?G (not (<= 1.0 ?B))) (= ?T (ite ?R (~ 1073741637.0) 0.0)) (= ?R (= ?S 0.0)) (or (and ?K1 ?N1) (and ?I1 ?O1)) (or (not ?K1) ?L1) (or (not ?K1) (and ?F1 ?L1 ?M1)) (or (not ?I1) ?J1) (or (not ?I1) (and ?B1 ?J1 (not ?H1))) (or (not ?F1) ?G1) (or (not ?F1) (and ?B1 ?G1 ?H1)) $x454476 $x475183 $x307373 (or $x398758 (and ?M ?A1 ?Q)) (or (not ?X) ?Y) (or (not ?X) (and ?J ?Y ?P)) (or (not ?M) ?N) (or (not ?M) (and ?H ?N (not ?L))) (or (not ?J) ?K) (or (not ?J) (and ?H ?K ?L)) (or (not ?V) ?W) (or (not ?V) (and ?D ?W ?O)) (or (not ?H) ?I) (or (not ?H) (and ?E ?I (not ?G))) (or (not ?D) ?F) (or (not ?D) (and ?E ?F ?G)) (= ?N1 (= ?U 0.0)))))
(=> $x170485 (|cp-rel-__UFO__2| ?A ?B ?C ?U)))))))))
)
(assert (forall ((?A Real) (?B Real) (?C Real) (?D Real) (?E Bool) )(let (($x268828 (|cp-rel-__UFO__2| ?A ?B ?C ?D)))
(=> (and $x268828 (= ?E true)) $x268828)))
)
(assert (forall ((?A Real) (?B Bool) (?C Bool) (?D Bool) (?E Bool) (?F Bool) (?G Bool) (?H Bool) (?I Bool) (?J Bool) (?K Bool) (?L Bool) (?M Bool) (?N Bool) (?O Bool) (?P Bool) (?Q Real) (?R Real) (?S Real) (?T Bool) (?U Bool) (?V Bool) (?W Bool) (?X Bool) (?Y Bool) (?Z Bool) (?A1 Bool) (?B1 Bool) (?C1 Bool) (?D1 Bool) (?E1 Bool) (?F1 Bool) (?G1 Bool) (?H1 Bool) (?I1 Bool) (?J1 Bool) (?K1 Bool) (?L1 Bool) (?M1 Bool) (?N1 Real) (?O1 Real) (?P1 Bool) (?Q1 Bool) (?R1 Bool) (?S1 Bool) (?T1 Bool) (?U1 Real) )(let (($x300458 (not ?Z)))
(let (($x444421 (or $x300458 (and ?X ?A1 (<= ?S 4.0) (>= ?S 4.0)) (and ?V ?B1 (<= ?S 2.0) (>= ?S 2.0)) (and ?T ?C1 (<= ?S 2.0) (>= ?S 2.0)))))
(let (($x162657 (or $x300458 (and ?A1 (not ?B1) (not ?C1)) (and ?B1 (not ?A1) (not ?C1)) (and ?C1 (not ?A1) (not ?B1)))))
(let (($x398758 (not ?D1)))
(let (($x307373 (or $x398758 ?E1)))
(let (($x113016 (not ?I1)))
(let (($x144781 (or $x113016 ?J1)))
(let (($x373474 (not ?R1)))
(let (($x349294 (or (and ?R1 (<= ?U1 42.0) (>= ?U1 42.0)) (and ?P1 (<= ?U1 42.0) (>= ?U1 42.0)))))
(let (($x131361 (and |cp-rel-entry| (= ?M1 (= ?S 4.0)) (= ?K1 (not (<= 2.0 ?S))) (= ?F1 (not (<= 4.0 ?S))) (= ?N1 (+ 1.0 ?O1)) (= ?O (= ?A 4.0)) (= ?N (= ?A 1.0)) (= ?J (not (<= 4.0 ?A))) (= ?M (= ?A 0.0)) (= ?E (not (<= 1.0 ?A))) (= ?R (ite ?P (~ 1073741637.0) 0.0)) (= ?P (= ?Q 0.0)) $x349294 (or $x373474 (and ?S1 (not ?T1)) (and ?T1 (not ?S1))) (or $x373474 (and ?I1 ?S1 (not ?L1)) (and ?G1 ?T1 (not ?M1))) (or (not ?P1) ?Q1) (or (not ?P1) (and ?D1 ?Q1 (not ?K1))) $x144781 (or $x113016 (and ?D1 ?J1 ?K1)) (or (not ?G1) ?H1) (or (not ?G1) (and ?Z ?H1 (not ?F1))) $x307373 (or $x398758 (and ?Z ?E1 ?F1)) $x162657 $x444421 (or (not ?X) ?Y) (or (not ?X) (and ?K ?Y ?O)) (or (not ?V) ?W) (or (not ?V) (and ?H ?W ?N)) (or (not ?K) ?L) (or (not ?K) (and ?F ?L (not ?J))) (or (not ?H) ?I) (or (not ?H) (and ?F ?I ?J)) (or (not ?T) ?U) (or (not ?T) (and ?B ?U ?M)) (or (not ?F) ?G) (or (not ?F) (and ?C ?G (not ?E))) (or (not ?B) ?D) (or (not ?B) (and ?C ?D ?E)) (= ?L1 (= ?S 0.0)))))
(=> $x131361 |cp-rel-UnifiedReturnBlock1|))))))))))))
)
(assert (not cp-rel-UnifiedReturnBlock1))
(check-sat)
